Nodes = {"Frankfurt", "Koeln", "Hamburg", "Hannover", "Karlsruhe", "Stuttgart", "Muenchen", "Nuernberg", "Berlin", "Leipzig"};
Arcs = {<"Frankfurt","Koeln",20,0>, <"Frankfurt","Hamburg",20,0>, <"Frankfurt","Hannover",20,0>, <"Frankfurt","Karlsruhe",20,0>, <"Frankfurt","Stuttgart",20,0>, <"Frankfurt","Muenchen",20,0>, <"Frankfurt","Nuernberg",20,0>, <"Frankfurt","Berlin",20,0>, <"Frankfurt","Leipzig",20,0>, <"Koeln","Frankfurt",20,0>, <"Koeln","Hamburg",20,0>, <"Koeln","Hannover",20,0>, <"Koeln","Karlsruhe",20,0>, <"Koeln","Stuttgart",20,0>, <"Koeln","Muenchen",20,0>, <"Koeln","Nuernberg",20,0>, <"Koeln","Berlin",20,0>, <"Koeln","Leipzig",20,0>, <"Hamburg","Frankfurt",20,0>, <"Hamburg","Koeln",20,0>, <"Hamburg","Hannover",20,0>, <"Hamburg","Karlsruhe",20,0>, <"Hamburg","Stuttgart",20,0>, <"Hamburg","Muenchen",20,0>, <"Hamburg","Nuernberg",20,0>, <"Hamburg","Berlin",20,0>, <"Hamburg","Leipzig",20,0>, <"Hannover","Frankfurt",20,0>, <"Hannover","Koeln",20,0>, <"Hannover","Hamburg",20,0>, <"Hannover","Karlsruhe",20,0>, <"Hannover","Stuttgart",20,0>, <"Hannover","Muenchen",20,0>, <"Hannover","Nuernberg",20,0>, <"Hannover","Berlin",20,0>, <"Hannover","Leipzig",20,0>, <"Karlsruhe","Frankfurt",20,0>, <"Karlsruhe","Koeln",20,0>, <"Karlsruhe","Hamburg",20,0>, <"Karlsruhe","Hannover",20,0>, <"Karlsruhe","Stuttgart",20,0>, <"Karlsruhe","Muenchen",20,0>, <"Karlsruhe","Nuernberg",20,0>, <"Karlsruhe","Berlin",20,0>, <"Karlsruhe","Leipzig",20,0>, <"Stuttgart","Frankfurt",20,0>, <"Stuttgart","Koeln",20,0>, <"Stuttgart","Hamburg",20,0>, <"Stuttgart","Hannover",20,0>, <"Stuttgart","Karlsruhe",20,0>, <"Stuttgart","Muenchen",20,0>, <"Stuttgart","Nuernberg",20,0>, <"Stuttgart","Berlin",20,0>, <"Stuttgart","Leipzig",20,0>, <"Muenchen","Frankfurt",20,0>, <"Muenchen","Koeln",20,0>, <"Muenchen","Hamburg",20,0>, <"Muenchen","Hannover",20,0>, <"Muenchen","Karlsruhe",20,0>, <"Muenchen","Stuttgart",20,0>, <"Muenchen","Nuernberg",20,0>, <"Muenchen","Berlin",20,0>, <"Muenchen","Leipzig",20,0>, <"Nuernberg","Frankfurt",20,0>, <"Nuernberg","Koeln",20,0>, <"Nuernberg","Hamburg",20,0>, <"Nuernberg","Hannover",20,0>, <"Nuernberg","Karlsruhe",20,0>, <"Nuernberg","Stuttgart",20,0>, <"Nuernberg","Muenchen",20,0>, <"Nuernberg","Berlin",20,0>, <"Nuernberg","Leipzig",20,0>, <"Berlin","Frankfurt",20,0>, <"Berlin","Koeln",20,0>, <"Berlin","Hamburg",20,0>, <"Berlin","Hannover",20,0>, <"Berlin","Karlsruhe",20,0>, <"Berlin","Stuttgart",20,0>, <"Berlin","Muenchen",20,0>, <"Berlin","Nuernberg",20,0>, <"Berlin","Leipzig",20,0>, <"Leipzig","Frankfurt",20,0>, <"Leipzig","Koeln",20,0>, <"Leipzig","Hamburg",20,0>, <"Leipzig","Hannover",20,0>, <"Leipzig","Karlsruhe",20,0>, <"Leipzig","Stuttgart",20,0>, <"Leipzig","Muenchen",20,0>, <"Leipzig","Nuernberg",20,0>, <"Leipzig","Berlin",20,0>};
Demands = {<"Frankfurt","Koeln",2,0>, <"Frankfurt","Hamburg",4,0>, <"Frankfurt","Hannover",6,0>, <"Frankfurt","Karlsruhe",8,0>, <"Frankfurt","Stuttgart",10,0>, <"Frankfurt","Muenchen",12,0>, <"Frankfurt","Nuernberg",14,0>, <"Frankfurt","Berlin",16,0>, <"Frankfurt","Leipzig",18,0>, <"Koeln","Frankfurt",2,0>, <"Koeln","Hamburg",2,0>, <"Koeln","Hannover",4,0>, <"Koeln","Karlsruhe",6,0>, <"Koeln","Stuttgart",8,0>, <"Koeln","Muenchen",10,0>, <"Koeln","Nuernberg",12,0>, <"Koeln","Berlin",14,0>, <"Koeln","Leipzig",16,0>, <"Hamburg","Frankfurt",4,0>, <"Hamburg","Koeln",2,0>, <"Hamburg","Hannover",2,0>, <"Hamburg","Karlsruhe",4,0>, <"Hamburg","Stuttgart",6,0>, <"Hamburg","Muenchen",8,0>, <"Hamburg","Nuernberg",10,0>, <"Hamburg","Berlin",12,0>, <"Hamburg","Leipzig",14,0>, <"Hannover","Frankfurt",6,0>, <"Hannover","Koeln",4,0>, <"Hannover","Hamburg",2,0>, <"Hannover","Karlsruhe",2,0>, <"Hannover","Stuttgart",4,0>, <"Hannover","Muenchen",6,0>, <"Hannover","Nuernberg",8,0>, <"Hannover","Berlin",10,0>, <"Hannover","Leipzig",12,0>, <"Karlsruhe","Frankfurt",8,0>, <"Karlsruhe","Koeln",6,0>, <"Karlsruhe","Hamburg",4,0>, <"Karlsruhe","Hannover",2,0>, <"Karlsruhe","Stuttgart",2,0>, <"Karlsruhe","Muenchen",4,0>, <"Karlsruhe","Nuernberg",6,0>, <"Karlsruhe","Berlin",8,0>, <"Karlsruhe","Leipzig",10,0>, <"Stuttgart","Frankfurt",10,0>, <"Stuttgart","Koeln",8,0>, <"Stuttgart","Hamburg",6,0>, <"Stuttgart","Hannover",4,0>, <"Stuttgart","Karlsruhe",2,0>, <"Stuttgart","Muenchen",2,0>, <"Stuttgart","Nuernberg",4,0>, <"Stuttgart","Berlin",6,0>, <"Stuttgart","Leipzig",8,0>, <"Muenchen","Frankfurt",12,0>, <"Muenchen","Koeln",10,0>, <"Muenchen","Hamburg",8,0>, <"Muenchen","Hannover",6,0>, <"Muenchen","Karlsruhe",4,0>, <"Muenchen","Stuttgart",2,0>, <"Muenchen","Nuernberg",2,0>, <"Muenchen","Berlin",4,0>, <"Muenchen","Leipzig",6,0>, <"Nuernberg","Frankfurt",14,0>, <"Nuernberg","Koeln",12,0>, <"Nuernberg","Hamburg",10,0>, <"Nuernberg","Hannover",8,0>, <"Nuernberg","Karlsruhe",6,0>, <"Nuernberg","Stuttgart",4,0>, <"Nuernberg","Muenchen",2,0>, <"Nuernberg","Berlin",2,0>, <"Nuernberg","Leipzig",4,0>, <"Berlin","Frankfurt",16,0>, <"Berlin","Koeln",14,0>, <"Berlin","Hamburg",12,0>, <"Berlin","Hannover",10,0>, <"Berlin","Karlsruhe",8,0>, <"Berlin","Stuttgart",6,0>, <"Berlin","Muenchen",4,0>, <"Berlin","Nuernberg",2,0>, <"Berlin","Leipzig",2,0>, <"Leipzig","Frankfurt",18,0>, <"Leipzig","Koeln",16,0>, <"Leipzig","Hamburg",14,0>, <"Leipzig","Hannover",12,0>, <"Leipzig","Karlsruhe",10,0>, <"Leipzig","Stuttgart",8,0>, <"Leipzig","Muenchen",6,0>, <"Leipzig","Nuernberg",4,0>, <"Leipzig","Berlin",2,0>};
